
Gurobi 10.0.1 (mac64[arm]) logging started Thu Mar 28 19:08:57 2024

Set parameter LogFile to value "/Users/deniserings/Documents/zib/s-bahn-data/scripts/DeniseMA/processed/BBKS_BWT/original/LP_based/BBKS_BWT_lp.log"
Gurobi Optimizer version 10.0.1 build v10.0.1rc0 (mac64[arm])

CPU model: Apple M2
Thread count: 8 physical cores, 8 logical processors, using up to 8 threads

Optimize a model with 10168 rows, 4381 columns and 42462 nonzeros
Model fingerprint: 0xee79db2d
Variable types: 2206 continuous, 2175 integer (2175 binary)
Coefficient statistics:
  Matrix range     [1e+00, 2e+02]
  Objective range  [1e+00, 4e+02]
  Bounds range     [1e+00, 2e+02]
  RHS range        [1e+00, 5e+02]
Presolve removed 3377 rows and 834 columns
Presolve time: 0.06s
Presolved: 6791 rows, 3547 columns, 32847 nonzeros
Variable types: 1573 continuous, 1974 integer (1974 binary)

Root relaxation: objective 7.488532e+03, 2402 iterations, 0.02 seconds (0.03 work units)

    Nodes    |    Current Node    |     Objective Bounds      |     Work
 Expl Unexpl |  Obj  Depth IntInf | Incumbent    BestBd   Gap | It/Node Time

     0     0 7488.53196    0  152          - 7488.53196      -     -    0s
     0     0 7679.60459    0  208          - 7679.60459      -     -    0s
     0     0 7697.60726    0  216          - 7697.60726      -     -    0s
     0     0 7697.95455    0  214          - 7697.95455      -     -    0s
     0     0 7697.95455    0  197          - 7697.95455      -     -    0s
     0     0 7697.95455    0  198          - 7697.95455      -     -    0s
     0     0 7701.15573    0  282          - 7701.15573      -     -    0s
     0     0 7701.44682    0  226          - 7701.44682      -     -    0s
     0     0 7702.02056    0  221          - 7702.02056      -     -    0s
     0     0 7702.10437    0  237          - 7702.10437      -     -    0s
     0     0 7702.10679    0  242          - 7702.10679      -     -    0s
H    0     0                    7950.2462215 7786.82774  2.06%     -    0s
     0     0 7786.82774    0  247 7950.24622 7786.82774  2.06%     -    0s
     0     0 7787.46809    0  211 7950.24622 7787.46809  2.05%     -    0s
     0     0 7789.48115    0  225 7950.24622 7789.48115  2.02%     -    0s
     0     0 7789.71405    0  215 7950.24622 7789.71405  2.02%     -    0s
     0     0 7789.93059    0  209 7950.24622 7789.93059  2.02%     -    0s
     0     0 7790.42077    0  209 7950.24622 7790.42077  2.01%     -    0s
     0     0 7790.42077    0  209 7950.24622 7790.42077  2.01%     -    0s
     0     0 7793.05233    0  220 7950.24622 7793.05233  1.98%     -    0s
     0     0 7795.21214    0  227 7950.24622 7795.21214  1.95%     -    0s
     0     0 7799.19405    0  208 7950.24622 7799.19405  1.90%     -    0s
     0     0 7799.22081    0  232 7950.24622 7799.22081  1.90%     -    0s
     0     0 7808.37888    0  278 7950.24622 7808.37888  1.78%     -    0s
     0     0 7809.43252    0  245 7950.24622 7809.43252  1.77%     -    0s
     0     0 7809.90979    0  220 7950.24622 7809.90979  1.77%     -    0s
     0     0 7810.08976    0  219 7950.24622 7810.08976  1.76%     -    0s
     0     0 7810.09503    0  222 7950.24622 7810.09503  1.76%     -    0s
H    0     0                    7950.2459805 7810.71917  1.75%     -    1s
     0     0 7810.71917    0  244 7950.24598 7810.71917  1.75%     -    1s
     0     0 7810.81194    0  243 7950.24598 7810.81194  1.75%     -    1s
     0     0 7810.84260    0  248 7950.24598 7810.84260  1.75%     -    1s
     0     0 7810.86272    0  235 7950.24598 7810.86272  1.75%     -    1s
     0     0 7810.91444    0  248 7950.24598 7810.91444  1.75%     -    1s
     0     0 7810.97499    0  244 7950.24598 7810.97499  1.75%     -    1s
     0     0 7811.02171    0  238 7950.24598 7811.02171  1.75%     -    1s
     0     0 7811.02171    0  251 7950.24598 7811.02171  1.75%     -    1s
     0     0 7811.02171    0  116 7950.24598 7811.02171  1.75%     -    1s
     0     2 7811.02171    0  113 7950.24598 7811.02171  1.75%     -    1s
H  189   114                    7950.2373337 7816.23881  1.69%  56.5    2s
H  190   114                    7950.2225207 7816.23881  1.69%  56.4    2s
H  234   140                    7950.2175830 7817.01413  1.68%  51.2    2s
* 1239   907             178    7949.1271018 7828.84777  1.51%  28.3    3s
* 1278   931             179    7948.8966237 7828.84777  1.51%  28.1    3s
* 1280   919             180    7948.8542591 7828.84777  1.51%  28.0    3s
H 1467   986                    7948.8540928 7828.84777  1.51%  26.9    3s
H 1474   940                    7948.8540857 7828.84777  1.51%  26.8    4s
  1483   946 7908.99721   38  130 7948.85409 7831.59404  1.48%  26.6    5s
H 1487   901                    7948.8540318 7834.18613  1.44%  26.5    5s
H 1496   861                    7948.8538346 7840.51930  1.36%  26.4    6s
H 1503   822                    7928.6463960 7867.76155  0.77%  26.3    7s
H 1578   810                    7928.6461778 7897.55066  0.39%  46.9    9s
H 1581   769                    7928.6461490 7897.55066  0.39%  46.8    9s
H 1741   756                    7927.7339264 7897.55066  0.38%  47.5    9s
H 1803   744                    7922.3491615 7897.55066  0.31%  47.3   10s
H 1806   708                    7922.0017669 7897.55066  0.31%  47.3   10s
H 1809   675                    7916.8757284 7897.55066  0.24%  47.3   10s
* 2287   768             115    7916.8675892 7899.60187  0.22%  43.3   11s
H 3302   447                    7907.6447605 7904.92850  0.03%  38.6   14s
  4381   478 7906.50247   38  111 7907.64476 7905.37983  0.03%  36.9   15s
* 4588   458             163    7907.6141490 7905.51421  0.03%  36.6   15s
* 5342   390              88    7907.3962936 7905.99051  0.02%  36.1   15s

Cutting planes:
  Learned: 7
  Gomory: 136
  Cover: 26
  Implied bound: 22
  Clique: 5
  MIR: 237
  StrongCG: 13
  Flow cover: 644
  Inf proof: 2
  RLT: 36
  Relax-and-lift: 15

Explored 6049 nodes (224930 simplex iterations) in 16.10 seconds (22.63 work units)
Thread count was 8 (of 8 available processors)

Solution count 10: 7907.4 7907.61 7907.64 ... 7928.65

Optimal solution found (tolerance 1.00e-04)
Best objective 7.907396293612e+03, best bound 7.906616648835e+03, gap 0.0099%

User-callback calls 18980, time in user-callback 0.04 sec

Statistics for modelBBKS_BWT:
  Linear constraint matrix    : 10168 Constrs, 4381 Vars, 42462 NZs
  Variable types              : 2206 Continuous,
2175 Integer (2175 Binary)
  Matrix coefficient range    : [ 1, 200 ]
  Objective coefficient range : [ 1, 382 ]
  Variable bound range        : [ 1, 199 ]
  RHS coefficient range       : [ 1, 549 ]
